c Optimised CNF encoding for 4x4 Sudoku
c Source: sudoku_4x4_05.txt
c Variables: 24  Clauses: 112
p cnf 24 112
1 0
2 0
3 4 0
5 6 7 0
8 9 0
10 11 12 0
13 14 15 0
16 17 0
18 19 20 0
21 22 0
23 0
24 0
-3 -4 0
-5 -6 0
-5 -7 0
-6 -7 0
-8 -9 0
-10 -11 0
-10 -12 0
-11 -12 0
-13 -14 0
-13 -15 0
-14 -15 0
-16 -17 0
-18 -19 0
-18 -20 0
-19 -20 0
-21 -22 0
2 0
1 0
5 8 10 0
3 6 0
9 11 0
4 7 12 0
18 21 0
13 16 19 0
14 20 22 0
15 17 0
23 0
24 0
-5 -8 0
-5 -10 0
-8 -10 0
-3 -6 0
-9 -11 0
-4 -7 0
-4 -12 0
-7 -12 0
-18 -21 0
-13 -16 0
-13 -19 0
-16 -19 0
-14 -20 0
-14 -22 0
-20 -22 0
-15 -17 0
3 13 0
14 0
1 4 15 0
5 0
6 16 23 0
7 17 0
2 8 18 0
19 0
9 20 0
10 21 0
11 22 24 0
12 0
-3 -13 0
-1 -4 0
-1 -15 0
-4 -15 0
-6 -16 0
-6 -23 0
-16 -23 0
-7 -17 0
-2 -8 0
-2 -18 0
-8 -18 0
-9 -20 0
-10 -21 0
-11 -22 0
-11 -24 0
-22 -24 0
5 0
3 6 0
1 4 7 0
2 8 10 0
9 11 0
12 0
13 16 23 0
14 0
15 17 0
18 21 0
19 0
20 22 24 0
-3 -6 0
-1 -4 0
-1 -7 0
-4 -7 0
-2 -8 0
-2 -10 0
-8 -10 0
-9 -11 0
-13 -16 0
-13 -23 0
-16 -23 0
-15 -17 0
-18 -21 0
-20 -22 0
-20 -24 0
-22 -24 0
